c File:  my.clq
c
c Source: Panos Pardalos pardalos@math.ufl.edu
c
c Reference: jfgkvk
c
p edge 20 56
e 1 2
e 1 4
e 1 8
e 1 10
e 1 11
e 1 20
e 2 3
e 2 5
e 2 8
e 2 20
e 2 10
e 3 4
e 3 6
e 3 8
e 3 19
e 3 20
e 4 5
e 4 7
e 4 8
e 4 18
e 5 6
e 5 7
e 5 8
e 5 17
e 6 7
e 6 8
e 6 16
e 6 17
e 7 8
e 7 9
e 7 10
e 7 11
e 7 12
e 8 9
e 8 10
e 8 12
e 9 10
e 9 12
e 9 13
e 9 14
e 9 15
e 10 11
e 10 12
e 11 12
e 12 13
e 13 14
e 14 15
e 15 16
e 16 17
e 17 18
e 18 19
e 19 20
e 2 19
e 3 18
e 1 19
e 1 3